data;
param n:=100;
param w:=1 -228 2 -293 3 57 4 11 5 -125 6 254 7 99 8 436 9 -255 10 -282 11 -363 12 302 13 -384 14 -231 15 -315 16 -319 17 370 18 284 19 -429 20 -468 21 -269 22 445 23 278 24 252 25 -338 26 318 27 470 28 -479 29 -367 30 -440 31 -306 32 209 33 -500 34 -136 35 43 36 -289 37 -125 38 -173 39 376 40 339 41 -118 42 261 43 282 44 -478 45 -377 46 -301 47 203 48 -72 49 82 50 443 51 -368 52 -73 53 402 54 -38 55 356 56 -51 57 434 58 397 59 -503 60 -104 61 -10 62 -167 63 -31 64 469 65 10 66 468 67 -310 68 -313 69 -78 70 212 71 99 72 -6 73 -429 74 80 75 -449 76 464 77 373 78 230 79 489 80 -99 81 223 82 90 83 442 84 295 85 -142 86 -404 87 -218 88 348 89 222 90 129 91 335 92 272 93 448 94 108 95 -150 96 -247 97 -269 98 -41 99 165 100 -414;
